projeto_final/ALL_tsp/ch4.tsp
NAME: ch4
TYPE: TSP
COMMENT: "Square with unit length"
DIMENSION: 4
EDGE_WEIGHT_TYPE: GEO
EDGE_WEIGHT_FORMAT: FUNCTION
DISPLAY_DATA_TYPE: COORD_DISPLAY
NODE_COORD_SECTION
1 0.0 0.0
2 0.0 1.0
3 1.0 0.0
4 1.0 1.0