projeto_final/ALL_tsp/ch4.opt.tour
NAME : ch4.opt.tour
COMMENT : Length 4
TYPE : TOUR
DIMENSION : 4
TOUR_SECTION
1
2
4
3